;; Preprocessed for Astral solver
(set-info :status sat)
;; variables
(declare-const x0 Loc)
(declare-const x1 Loc)
(declare-const x2 Loc)
(declare-const x3 Loc)
(declare-const x4 Loc)
(declare-const x5 Loc)
(declare-const x6 Loc)
(declare-const x7 Loc)
(declare-const x8 Loc)
(declare-const x9 Loc)
(declare-const x10 Loc)
(declare-const x11 Loc)
(declare-const x12 Loc)
(declare-const x13 Loc)
(declare-const x14 Loc)
(declare-const x15 Loc)
(declare-const x16 Loc)
(declare-const x17 Loc)
(declare-const x18 Loc)
(declare-const x19 Loc)
(declare-const x20 Loc)
(declare-const x21 Loc)
(declare-const x22 Loc)
(declare-const x23 Loc)
(declare-const x24 Loc)

(assert 
		(sep 
			(= nil nil)
			(distinct nil x1)
			(distinct nil x2)
			(distinct nil x3)
			(distinct x1 x3)
			(distinct x2 x3)
			(distinct nil x5)
			(distinct nil x6)
			(distinct nil x7)
			(distinct x5 x7)
			(distinct x6 x7)
			(distinct nil x9)
			(distinct nil x10)
			(distinct nil x11)
			(distinct x9 x11)
			(distinct x10 x11)
			(distinct nil x13)
			(distinct nil x14)
			(distinct nil x15)
			(distinct x13 x15)
			(distinct x14 x15)
			(distinct nil x17)
			(distinct nil x18)
			(distinct nil x19)
			(distinct x17 x19)
			(distinct x18 x19)
		(sep 
			(ls x18 x17 )
			(pto x19 x18)
			(pto x17 x19)
			(ls x14 x13 )
			(pto x15 x14)
			(pto x13 x15)
			(ls x10 x9 )
			(pto x11 x10)
			(pto x9 x11)
			(ls x6 x5 )
			(pto x7 x6)
			(pto x5 x7)
			(ls x2 x1 )
			(pto x3 x2)
			(pto x1 x3)
		)

		)

)

(assert (not 
		(sep 
			(pto x20 x19)
			(ls x18 x20 )
			(pto x19 x18)
			(pto x16 x15)
			(ls x14 x16 )
			(pto x15 x14)
			(pto x12 x11)
			(ls x10 x12 )
			(pto x11 x10)
			(pto x8 x7)
			(ls x6 x8 )
			(pto x7 x6)
			(pto x4 x3)
			(ls x2 x4 )
			(pto x3 x2)
		)

))

(check-sat)
